NAME : rnd45_20.tsp
TYPE : TSP
DIMENSION : 20
EDGE_WEIGHT_TYPE : EUC_2D
NODE_COORD_SECTION
1 143 939
2 489 242
3 238 869
4 90 767
5 724 182
6 230 280
7 362 308
8 36 806
9 196 397
10 181 516
11 278 720
12 64 889
13 190 578
14 223 808
15 494 445
16 569 81
17 654 720
18 194 522
19 118 502
20 802 79
